Generated using phonoLAMMPS
1.0
        7.6035660000         0.0000000000         0.0000000000
       -3.8017830000         6.5848820000         0.0000000000
        0.0000000000         0.0000000000         7.1429620000
H O
24 12
Direct
0.330823063809797   0.000000000000000   0.196428036436425
0.000000002122573   0.330822936538574   0.196428036436425
-0.330823010347952   0.669176911598416   0.196428036436425
-0.330823063809797   0.000000000000000   0.696428036436425
-0.000000078055393   0.669176911598416   0.696428036436425
0.330822934415131   0.330822936538574   0.696428036436425
0.452347096086231   0.000000000000000   0.010646003716665
-0.000000029214862   0.452346906140459   0.010646003716665
0.547652988713048   0.547652941996531   0.010646003716665
0.547653035431007   0.000000000000000   0.510646003716665
-0.000000046717958   0.547652941996531   0.510646003716665
0.452346935354131   0.452346906140459   0.510646003716665
-0.336283987784956   0.877544958284750   0.978847010525886
0.122454962426235   0.786170959479608   0.978847010525886
0.213828949424585   0.336283930372632   0.978847010525886
-0.213828946068712   0.122455041715250   0.978847010525886
0.336284002947380   0.213829040520392   0.978847010525886
-0.122455056879983   0.663715917764358   0.978847010525886
0.336283987783641   0.122455041715250   0.478847010525885
-0.122454962427551   0.213829040520392   0.478847010525885
-0.213829025357405   0.663715917764358   0.478847010525885
0.213828946067397   0.877544958284750   0.478847010525885
-0.336284002948695   0.786170959479608   0.478847010525885
0.122454980947163   0.336283930372632   0.478847010525885
0.326641999293490   0.000000000000000   0.055658002940517
-0.000000001639921   0.326641996014507   0.055658002940517
-0.326641997654884   0.673358003985493   0.055658002940517
-0.326641999293489   0.000000000000000   0.555658002940517
0.000000001638605   0.673358003985493   0.555658002940517
0.326641997653569   0.326641996014507   0.555658002940517
-0.339394962837174   0.000000000000000   0.929575013838797
-0.000000016578449   0.660605004007665   0.929575013838797
0.339394979414308   0.339394995992335   0.929575013838797
0.339394962837174   0.000000000000000   0.429575013838797
0.000000016577134   0.339394995992335   0.429575013838797
-0.339394979415623   0.660605004007665   0.429575013838797
